(set-logic QF_NRA)
(declare-fun skoX () Real)
(declare-fun skoY () Real)
(declare-fun skoZ () Real)
(assert (and (<= (* (- 1) skoX) 0) (and (<= (+ (* 70 (* skoX skoX)) (* 15 (* skoX skoX skoX skoX))) (- 63)) (and (<= (+ (* 75600 skoX) (* 75600 skoY) (* 56700 skoZ) (* 103341 (* skoX skoX)) (* 100548 (* skoX skoY)) (* 75411 (* skoY skoY)) (* 150822 (* skoX skoZ)) (* 150822 (* skoY skoZ)) (* 75411 (* skoZ skoZ)) (* 134400 (* skoX skoX skoX)) (* 159600 (* skoX skoX skoY)) (* 75600 (* skoX skoY skoY)) (* 176400 (* skoX skoX skoZ)) (* 113400 (* skoX skoY skoZ)) (* 113400 (* skoY skoY skoZ)) (* 56700 (* skoX skoZ skoZ)) (* 56700 (* skoY skoZ skoZ)) (* 56700 (* skoY skoY skoY)) (* 89775 (* skoX skoX skoX skoX)) (* 111720 (* skoX skoX skoX skoY)) (* 108927 (* skoX skoX skoY skoY)) (* 167580 (* skoX skoX skoX skoZ)) (* 16758 (* skoX skoX skoY skoZ)) (* (- 150822) (* skoX skoY skoY skoZ)) (* 83790 (* skoX skoX skoZ skoZ)) (* (- 150822) (* skoX skoY skoZ skoZ)) (* 58880 (* skoX skoX skoX skoX skoX)) (* 76800 (* skoX skoX skoX skoX skoY)) (* 84000 (* skoX skoX skoX skoY skoY)) (* 81900 (* skoX skoX skoY skoY skoY)) (* 101700 (* skoX skoX skoX skoX skoZ)) (* (- 25200) (* skoX skoX skoX skoY skoZ)) (* (- 44100) (* skoX skoX skoY skoY skoZ)) (* (- 113400) (* skoX skoY skoY skoY skoZ)) (* 44100 (* skoX skoX skoX skoZ skoZ)) (* (- 50400) (* skoX skoX skoY skoZ skoZ)) (* (- 113400) (* skoX skoY skoY skoZ skoZ)) (* 17955 (* skoX skoX skoX skoX skoX skoX)) (* 23940 (* skoX skoX skoX skoX skoX skoY)) (* 45885 (* skoX skoX skoX skoX skoY skoY)) (* 35910 (* skoX skoX skoX skoX skoX skoZ)) (* (- 131670) (* skoX skoX skoX skoX skoY skoZ)) (* (- 167580) (* skoX skoX skoX skoY skoY skoZ)) (* 17955 (* skoX skoX skoX skoX skoZ skoZ)) (* (- 167580) (* skoX skoX skoX skoY skoZ skoZ)) (* 75411 (* skoX skoX skoY skoY skoZ skoZ)) (* 3840 (* skoX skoX skoX skoX skoX skoX skoX)) (* 5120 (* skoX skoX skoX skoX skoX skoX skoY)) (* 23040 (* skoX skoX skoX skoX skoX skoY skoY)) (* 34500 (* skoX skoX skoX skoX skoY skoY skoY)) (* (- 80520) (* skoX skoX skoX skoX skoX skoY skoZ)) (* (- 124200) (* skoX skoX skoX skoX skoY skoY skoZ)) (* 7680 (* skoX skoX skoX skoX skoX skoX skoZ)) (* (- 126000) (* skoX skoX skoX skoY skoY skoY skoZ)) (* 3840 (* skoX skoX skoX skoX skoX skoZ skoZ)) (* (- 74700) (* skoX skoX skoX skoX skoY skoZ skoZ)) (* (- 69300) (* skoX skoX skoX skoY skoY skoZ skoZ)) (* 56700 (* skoX skoX skoY skoY skoY skoZ skoZ)) (* 5985 (* skoX skoX skoX skoX skoX skoX skoY skoY)) (* (- 35910) (* skoX skoX skoX skoX skoX skoX skoY skoZ)) (* (- 35910) (* skoX skoX skoX skoX skoX skoY skoY skoZ)) (* (- 35910) (* skoX skoX skoX skoX skoX skoY skoZ skoZ)) (* 83790 (* skoX skoX skoX skoX skoY skoY skoZ skoZ)) (* 1280 (* skoX skoX skoX skoX skoX skoX skoX skoY skoY)) (* 4500 (* skoX skoX skoX skoX skoX skoX skoY skoY skoY)) (* (- 21180) (* skoX skoX skoX skoX skoX skoX skoY skoY skoZ)) (* (- 7680) (* skoX skoX skoX skoX skoX skoX skoX skoY skoZ)) (* (- 27000) (* skoX skoX skoX skoX skoX skoY skoY skoY skoZ)) (* (- 7680) (* skoX skoX skoX skoX skoX skoX skoY skoZ skoZ)) (* 17100 (* skoX skoX skoX skoX skoX skoY skoY skoZ skoZ)) (* 63000 (* skoX skoX skoX skoX skoY skoY skoY skoZ skoZ)) (* 17955 (* skoX skoX skoX skoX skoX skoX skoY skoY skoZ skoZ)) (* 3840 (* skoX skoX skoX skoX skoX skoX skoX skoY skoY skoZ skoZ)) (* 13500 (* skoX skoX skoX skoX skoX skoX skoY skoY skoY skoZ skoZ))) (- 25137)) (and (or (not (<= (* (- 1) skoX) 0)) (<= (+ skoX skoY skoZ (* skoX skoY) (* (- 1) (* skoX skoY skoZ))) 1)) (and (or (<= (* (- 1) skoY) 0) (<= (+ skoX skoY skoZ (* skoX skoY) (* (- 1) (* skoX skoY skoZ))) 1)) (and (or (not (<= (* (- 1) skoY) 0)) (<= (+ (* (- 1) skoX) (* (- 1) skoY) (* (- 1) skoZ) (* skoX skoY skoZ)) 0)) (and (not (<= skoZ 0)) (and (not (<= skoX (- 1))) (and (not (<= (* (- 1) skoY) (- 1))) (not (<= (+ (* (- 1) skoX) skoY) 0))))))))))))
(set-info :status unsat)
(check-sat)
